VACCINE = Vaccine(1..2);
m = 24;
age = [SENIOR, CHILD, YOUTH, ANCIENT, ADULT, SENIOR, AGED, CHILD, ANCIENT, CHILD, SENIOR, AGED, AGED, BABY, CHILD, ANCIENT, BABY, CHILD, SENIOR, AGED, ADULT, CHILD, AGED, ADULT];
gender = [FEMALE, MALE, FEMALE, FEMALE, MALE, OTHER, OTHER, OTHER, FEMALE, OTHER, OTHER, FEMALE, FEMALE, OTHER, MALE, MALE, MALE, FEMALE, OTHER, FEMALE, OTHER, OTHER, OTHER, MALE];
health = [GOOD, POOR, COMPROMISED, POOR, POOR, POOR, GOOD, GOOD, COMPROMISED, POOR, COMPROMISED, GOOD, GOOD, GOOD, GOOD, COMPROMISED, POOR, COMPROMISED, GOOD, GOOD, COMPROMISED, COMPROMISED, GOOD, COMPROMISED];
exposure = [AVERAGE, AVERAGE, EXTREME, EXTREME, EXTREME, AVERAGE, HIGH, EXTREME, EXTREME, AVERAGE, EXTREME, HIGH, LOW, EXTREME, LOW, LOW, EXTREME, LOW, LOW, HIGH, EXTREME, HIGH, AVERAGE, LOW];
size = [14, 13, 10, 10, 12, 11, 11, 13, 13, 11, 14, 15, 12, 11, 15, 12, 14, 13, 13, 10, 13, 10, 14, 13];
minsize = 10;
age_group_min = [1, 0, 0, 1, 1, 0, 0];
age_group_max = [18, 14, 8, 24, 14, 23, 24];
max_people_diff = 73;
max_share_vaccines = 2;
health_information = {7, 19, 22};
exposure_information = {3, 10, 11, 16};